
  32    1
  10

   0   0   6 2 3 4 6 8 9 
   3   4   3 13 12 5 
   4   4   3 13 12 5 
   3   6   2 13 7 
   2   8   1 7 
   5   5   3 14 12 10 
   4   6   2 11 10 
  10   2   2 12 11 
   5   9   2 14 10 
   3   8   3 18 16 15 
   2   7   3 22 18 14 
   7   3   3 18 16 15 
   2  10   4 22 19 18 17 
   2   6   3 20 19 17 
   6   4   3 22 21 20 
   3   4   1 17 
  10   9   4 27 26 23 21 
   1   4   2 24 20 
   1   3   4 27 26 24 23 
   2   8   4 31 27 26 23 
   3   7   4 30 29 25 24 
   4   9   4 31 30 29 25 
   4   5   3 30 29 25 
   8   7   2 31 28 
   4   3   1 28 
   2   4   1 30 
   8   7   1 29 
   5   4   1 32
   1  10   1 32
   5   7   1 32
   2   7   1 32
   0   0   0 
